
Gurobi 9.1.2 (linux64) logging started Thu Mar 31 09:07:30 2022

Changed value of parameter LogFile to ny_v-N8.log
   Prev:   Default: 
Changed value of parameter MIPFocus to 1
   Prev: 0  Min: 0  Max: 3  Default: 0
Changed value of parameter TimeLimit to 600.0
   Prev: inf  Min: 0.0  Max: inf  Default: inf
Warning: variables 0 and 130 have the same name "X[N2,N1]"
Warning: linear constraint 102 and linear constraint 103 have the same name "weight-constr-t5"
Warning: to let Gurobi read it back, use rlp format
Gurobi Optimizer version 9.1.2 build v9.1.2rc0 (linux64)
Thread count: 32 physical cores, 64 logical processors, using up to 32 threads
Optimize a model with 837 rows, 780 columns and 2772 nonzeros
Model fingerprint: 0xfaac2d09
Variable types: 96 continuous, 684 integer (684 binary)
Coefficient statistics:
  Matrix range     [1e+00, 1e+06]
  Objective range  [2e-01, 2e-01]
  Bounds range     [1e+00, 5e+05]
  RHS range        [1e+00, 1e+06]
Found heuristic solution: objective 35.8333333
Presolve removed 228 rows and 252 columns
Presolve time: 0.01s
Presolved: 609 rows, 528 columns, 3866 nonzeros
Variable types: 90 continuous, 438 integer (438 binary)

Root relaxation: objective 1.500000e+01, 77 iterations, 0.00 seconds

    Nodes    |    Current Node    |     Objective Bounds      |     Work
 Expl Unexpl |  Obj  Depth IntInf | Incumbent    BestBd   Gap | It/Node Time

     0     0   15.00000    0    4   35.83333   15.00000  58.1%     -    0s
H    0     0                      21.6666667   15.00000  30.8%     -    0s
H    0     0                      20.6666667   15.00000  27.4%     -    0s
     0     0   15.00000    0    6   20.66667   15.00000  27.4%     -    0s
H    0     0                      20.1666667   15.00000  25.6%     -    0s
H    0     0                      20.0000000   15.00000  25.0%     -    0s
H    0     0                      18.6666667   15.00000  19.6%     -    0s
     0     0   15.00000    0    2   18.66667   15.00000  19.6%     -    0s
H    0     0                      18.5000000   15.00000  18.9%     -    0s
     0     0   15.00000    0    2   18.50000   15.00000  18.9%     -    0s
H    0     0                      18.3333333   15.00000  18.2%     -    0s
     0     0   15.00000    0    2   18.33333   15.00000  18.2%     -    0s
H    0     0                      18.1666667   15.00000  17.4%     -    0s
     0     0   15.00000    0    3   18.16667   15.00000  17.4%     -    0s
H    0     0                      18.0000000   15.00000  16.7%     -    0s
H    0     0                      17.3333333   15.00000  13.5%     -    0s
H    0     0                      17.0000000   15.00000  11.8%     -    0s
     0     2   15.00000    0    3   17.00000   15.00000  11.8%     -    0s
H   33    52                      16.6666667   15.00000  10.0%   7.1    0s
*   39    52               5      15.0000000   15.00000  0.00%   7.2    0s

Cutting planes:
  Cover: 1
  Implied bound: 6
  Clique: 1
  MIR: 1
  Flow cover: 1
  RLT: 3

Explored 61 nodes (2137 simplex iterations) in 0.26 seconds
Thread count was 32 (of 64 available processors)

Solution count 10: 15 16.6667 17 ... 20

Optimal solution found (tolerance 1.00e-04)
Best objective 1.500000000000e+01, best bound 1.500000000000e+01, gap 0.0000%
